NAME:  wi29
COMMENT: Tour length 13312
COMMENT: Number of state space tree nodes 4963
COMMENT: Number of nodes expanded 842
COMMENT: Number of nodes cutoff before PQueue 7
COMMENT: Number of nodes cutoff after PQueue 4110
TYPE: TOUR
DIMENSION: 12
Tour_SECTION
1
5
4
3
7
9
8
12
11
10
6
2
1
EOF